sat
(:max-memory         18.03
 :memory             17.92
 :nlsat-propagations 5
 :nlsat-stages       5
 :num-allocs         5333
 :rlimit-count       1055
 :time               0.00
 :total-time         0.01)
